40
    20    95    51    86    95    33    43    11    55     3    56    19    70    58    12    27    34     5     8    58    73     4    21    33    40    68     5    82    16    63    92    33     9     8    93    20    58    76    97    79
     6     5     4     6     2     6     7     7     4     1     3     5     9     9     3     8     1    10     3     2     4     4     1     4     8     6     9     4     3     5     2     1     9     9     9     6     1     9     3    10
     0   407  1105    76   733  1032   363   397     0   403    65   811   529   525   835   607     0     0    82     0  1011   710     0   747     0  1073   880  1134   393   864   882     0  1175     0     0   378   113   887   473  1207
